2
1000 2
50
259 1 1000000
388 1 1000000
261 1 1000000
262 1 2000000
264 1 1000000
265 1 1000000
268 1 1000000
269 1 1000000
270 1 1000000
276 1 2000000
278 1 1000000
281 1 3000000
282 1 2000000
283 1 1000000
285 1 1000000
286 1 1000000
389 1 1000000
416 1 1000000
496 1 1000000
290 1 1000000
422 1 1000000
433 1 1000000
296 1 1000000
301 1 1000000
302 1 1000000
432 1 1000000
305 1 1000000
327 1 1000000
328 1 1000000
396 1 1000000
334 1 1000000
335 1 1000000
483 1 1000000
340 1 1000000
462 1 1000000
463 1 1000000
347 1 1000000
352 1 1000000
355 1 1000000
484 1 1000000
358 1 1000000
360 1 1000000
361 1 1000000
489 1 1000000
372 1 2000000
380 1 2000000
250 1 1000000
252 1 4000000
254 1 1000000
469 1 1000000
